NAME          BLANK   
ROWS
 N  OBJROW
 L  R0000000
COLUMNS
    C0000000  OBJROW     -479.         R0000000  359.        
    C0000001  OBJROW     -901.         R0000000  181.        
    C0000002  OBJROW     -159.         R0000000  294.        
    C0000003  OBJROW     -2.           R0000000  197.        
    C0000004  OBJROW     -200.         R0000000  435.        
    C0000005  OBJROW     -43.          R0000000  821.        
    C0000006  OBJROW     -559.         R0000000  932.        
    C0000007  OBJROW     -455.         R0000000  828.        
    C0000008  OBJROW     -743.         R0000000  580.        
    C0000009  OBJROW     -780.         R0000000  30.         
    C0000010  OBJROW     -7.           R0000000  685.        
    C0000011  OBJROW     -505.         R0000000  64.         
    C0000012  OBJROW     -650.         R0000000  3.          
    C0000013  OBJROW     -331.         R0000000  395.        
    C0000014  OBJROW     -455.         R0000000  454.        
    C0000015  OBJROW     -847.         R0000000  28.         
    C0000016  OBJROW     -712.         R0000000  725.        
    C0000017  OBJROW     -709.         R0000000  572.        
    C0000018  OBJROW     -308.         R0000000  759.        
    C0000019  OBJROW     -888.         R0000000  888.        
RHS
    RHS       R0000000  13865.      
BOUNDS
 BV BOUND     C0000000  1.          
 BV BOUND     C0000001  1.          
 BV BOUND     C0000002  1.          
 BV BOUND     C0000003  1.          
 BV BOUND     C0000004  1.          
 BV BOUND     C0000005  1.          
 BV BOUND     C0000006  1.          
 BV BOUND     C0000007  1.          
 BV BOUND     C0000008  1.          
 BV BOUND     C0000009  1.          
 BV BOUND     C0000010  1.          
 BV BOUND     C0000011  1.          
 BV BOUND     C0000012  1.          
 BV BOUND     C0000013  1.          
 BV BOUND     C0000014  1.          
 BV BOUND     C0000015  1.          
 BV BOUND     C0000016  1.          
 BV BOUND     C0000017  1.          
 BV BOUND     C0000018  1.          
 BV BOUND     C0000019  1.          
ENDATA
